Version identifier: 12.10.0.0 | 2019-11-26 | 843d4de
CPXPARAM_WorkMem                                 28672
Tried aggregator 2 times.
Aggregator did 75 substitutions.
Reduced MIP has 319 rows, 360 columns, and 1480 nonzeros.
Reduced MIP has 360 binaries, 0 generals, 0 SOSs, and 0 indicators.
Presolve time = 0,00 sec. (1,44 ticks)
Found incumbent of value 1512,000000 after 0,00 sec. (2,44 ticks)
Probing time = 0,00 sec. (0,72 ticks)
Tried aggregator 1 time.
Detecting symmetries...
MIP Presolve eliminated 68 rows and 0 columns.
MIP Presolve added 136 rows and 0 columns.
Reduced MIP has 387 rows, 360 columns, and 1548 nonzeros.
Reduced MIP has 360 binaries, 0 generals, 0 SOSs, and 0 indicators.
Presolve time = 0,00 sec. (1,77 ticks)
Probing time = 0,00 sec. (0,70 ticks)
Clique table members: 1075.
MIP emphasis: balance optimality and feasibility.
MIP search method: dynamic search.
Parallel mode: deterministic, using up to 16 threads.
Root relaxation solution time = 0,00 sec. (1,65 ticks)

        Nodes                                         Cuts/
   Node  Left     Objective  IInf  Best Integer    Best Bound    ItCnt     Gap

*     0+    0                         1512,0000        0,0000           100,00%
*     0+    0                          957,0000        0,0000           100,00%
      0     0      378,0000   293      957,0000      378,0000      141   60,50%
      0     0      378,9522   293      957,0000      Cuts: 49      186   60,40%
*     0+    0                          947,0000      378,9522            59,98%
      0     0      381,9756   293      947,0000     Cuts: 196      239   59,66%
      0     0      382,8407   293      947,0000     Cuts: 143      274   59,57%
      0     0      382,9694   293      947,0000   ZeroHalf: 3      285   59,56%
      0     0      383,1142   293      947,0000      Cuts: 53      298   59,54%
Detecting symmetries...
      0     0      383,1156   293      947,0000     Cuts: 106      299   59,54%
*     0+    0                          918,0000      383,1156            58,27%
*     0+    0                          785,0000      383,1156            51,20%
      0     0      383,1284   293      785,0000   ZeroHalf: 1      309   50,35%
*     0+    0                          780,0000      389,7190            50,04%
Detecting symmetries...
      0     2      383,1284   356      780,0000      431,5757      309   44,67%
Elapsed time = 0,22 sec. (119,15 ticks, tree = 0,02 MB, solutions = 6)
   1548  1006      625,9399   262      780,0000      483,5555    67368   38,01%
   2848  1783      672,3452   169      780,0000      581,5239   131143   25,45%

Performing restart 1

Repeating presolve.
Tried aggregator 1 time.
Reduced MIP has 387 rows, 360 columns, and 1548 nonzeros.
Reduced MIP has 360 binaries, 0 generals, 0 SOSs, and 0 indicators.
Presolve time = 0,00 sec. (0,94 ticks)
Tried aggregator 1 time.
Reduced MIP has 387 rows, 360 columns, and 1548 nonzeros.
Reduced MIP has 360 binaries, 0 generals, 0 SOSs, and 0 indicators.
Presolve time = 0,00 sec. (1,20 ticks)
Represolve time = 0,02 sec. (8,86 ticks)
   4534     0      394,0884   358      780,0000       Cuts: 9   244000   18,79%
   4534     0      396,5626   358      780,0000       Cuts: 4   244029   18,79%
   4534     0      398,4907   358      780,0000      Fract: 4   244071   18,79%
   4534     0      401,6779   358      780,0000       Cuts: 9   244155   18,79%
   4534     0      403,2679   358      780,0000       Cuts: 7   244216   18,79%
   4534     0      404,5516   358      780,0000       Cuts: 7   244279   18,79%
   4534     2      404,5516   353      780,0000      633,4099   244279   18,79%
   4552    15      533,3724   263      780,0000      633,4099   246262   18,79%
   5420   613        cutoff            780,0000      633,4099   307507   18,79%
   6326  1294      616,5988   294      780,0000      633,4099   354246   18,79%
   7748  2412      636,9383   270      780,0000      633,4099   428354   18,79%
   9191  3354      687,2851   166      780,0000      633,4099   483079   18,79%

Performing restart 2

Repeating presolve.
Tried aggregator 1 time.
Reduced MIP has 387 rows, 360 columns, and 1548 nonzeros.
Reduced MIP has 360 binaries, 0 generals, 0 SOSs, and 0 indicators.
Presolve time = 0,00 sec. (0,94 ticks)
Tried aggregator 1 time.
Reduced MIP has 387 rows, 360 columns, and 1548 nonzeros.
Reduced MIP has 360 binaries, 0 generals, 0 SOSs, and 0 indicators.
Presolve time = 0,00 sec. (1,20 ticks)
Represolve time = 0,02 sec. (18,62 ticks)
  10360     0      408,1628   353      780,0000       Cuts: 8   560023   18,79%
  10360     0      408,5944   353      780,0000       Cuts: 2   560064   18,79%
  10360     0      408,9097   353      780,0000       Cuts: 7   560100   18,79%
  10360     0      409,1633   353      780,0000       Cuts: 2   560126   18,79%
  10360     0      409,2138   353      780,0000       Cuts: 4   560134   18,79%
  10360     0      410,6743   353      780,0000       Cuts: 3   560190   18,79%
  10360     0      410,8553   353      780,0000       Cuts: 4   560219   18,79%
  10360     2      410,8553   352      780,0000      633,4099   560219   18,79%
  16679  3291      697,6482   249      780,0000      677,6671   862832   13,12%
Elapsed time = 4,90 sec. (4151,23 ticks, tree = 1,47 MB, solutions = 6)
  23292  3296        cutoff            780,0000      735,6857  1172252    5,68%
* 24650  2340      integral     0      777,0000      750,0332  1223607    3,47%

Clique cuts applied:  23
Cover cuts applied:  704
Flow cuts applied:  11
Mixed integer rounding cuts applied:  37
Zero-half cuts applied:  5
Lift and project cuts applied:  2
Gomory fractional cuts applied:  43

Root node processing (before b&c):
  Real time             =    0,22 sec. (118,84 ticks)
Parallel b&c, 16 threads:
  Real time             =    6,35 sec. (5249,24 ticks)
  Sync time (average)   =    1,54 sec.
  Wait time (average)   =    0,02 sec.
                          ------------
Total (root+branch&cut) =    6,57 sec. (5368,09 ticks)
